treewidth/data/GeneralizedPetersenGraph_10_4.gr
p tw 20 30
1 2
1 20
1 3
2 13
2 4
13 14
13 5
14 15
14 6
15 16
15 7
16 17
16 8
17 18
17 9
18 19
18 10
19 20
19 11
20 12
3 7
3 9
4 8
4 10
5 9
5 11
6 10
6 12
7 11
8 12
