treewidth/data/GeneralizedPetersenGraph_10_4.td
c width = 6, time = 0.151838
s td 11 7 20
b 1 6 10 12 13 14 15
b 2 1 10 11 12 13 15 17
b 3 1 8 10 12 13 15 17
b 4 1 2 4 8 10 13
b 5 8 15 16 17
b 6 1 9 11 13 15 17
b 7 1 3 7 9 11 15
b 8 5 9 11 13
b 9 1 10 11 12 17 19
b 10 10 17 18 19
b 11 1 12 19 20
3 4
3 5
2 3
6 7
6 8
2 6
9 10
9 11
2 9
1 2
